&CONTROL
  calculation='relax',
  prefix='calc',
  pseudo_dir='/gpfs/pace1/project/chbe-medford/medford-share/data/pseudos/SSSP_eff_PBE',
  outdir='.',
  tprnfor=.true.,
/
&SYSTEM
  ibrav=0,
  celldm(1)=1.8897261245650618d0,
  nat=56,
  ntyp=4,
  ecutwfc=40.4242561699d0,
  ecutrho=330.743914118d0,
  nbnd=355,
  occupations='smearing',
  smearing='fd',
  degauss=0.00734986475817d0,
  input_dft='PBE',
/
&ELECTRONS
  diagonalization='david',
  conv_thr=3.67493237909e-07,
  mixing_beta=0.15d0,
  mixing_mode='local-TF',
  electron_maxstep=1000,
  conv_thr=3.67493237909e-07,
/
&IONS
  ion_dynamics='ase3',
/
CELL_PARAMETERS
   11.534891500139912d0     0.000000000000000d0     0.000000000000000d0
   -5.767445750069956d0     9.989509069018357d0     0.000000000000000d0
    0.000000000000000d0    -0.000000000000000d0    29.634146526872652d0
ATOMIC_SPECIES
Au1 196.9665d0 Au.UPF
O1 15.9994d0 O.UPF
C1 12.011d0 C.UPF
H1 1.00794d0 H.UPF
ATOMIC_POSITIONS {crystal}
Au1      0.000000000000000d0     0.000000000000000d0     0.337448557559499d0
Au1      0.166666666666667d0     0.083333333333333d0     0.416902503218908d0
Au1      0.000000000000000d0     0.250000000000000d0     0.337448557559499d0
Au1      0.166666666666667d0     0.333333333333333d0     0.416902503218908d0
Au1      0.000000000000000d0     0.500000000000000d0     0.337448557559499d0
Au1      0.166666666666667d0     0.583333333333333d0     0.416902503218908d0
Au1      0.000000000000000d0     0.750000000000000d0     0.337448557559499d0
Au1      0.166666666666667d0     0.833333333333333d0     0.416902503218908d0
Au1      0.250000000000000d0     0.000000000000000d0     0.337448557559499d0
Au1      0.416666666666667d0     0.083333333333333d0     0.416902503218908d0
Au1      0.250000000000000d0     0.250000000000000d0     0.337448557559499d0
Au1      0.416666666666667d0     0.333333333333333d0     0.416902503218908d0
Au1      0.250000000000000d0     0.500000000000000d0     0.337448557559499d0
Au1      0.416666666666667d0     0.583333333333333d0     0.416902503218908d0
Au1      0.250000000000000d0     0.750000000000000d0     0.337448557559499d0
Au1      0.416666666666667d0     0.833333333333333d0     0.416902503218908d0
Au1      0.500000000000000d0     0.000000000000000d0     0.337448557559499d0
Au1      0.666666666666667d0     0.083333333333333d0     0.416902503218908d0
Au1      0.500000000000000d0     0.250000000000000d0     0.337448557559499d0
Au1      0.666666666666667d0     0.333333333333333d0     0.416902503218908d0
Au1      0.500000000000000d0     0.500000000000000d0     0.337448557559499d0
Au1      0.666666666666667d0     0.583333333333333d0     0.416902503218908d0
Au1      0.500000000000000d0     0.750000000000000d0     0.337448557559499d0
Au1      0.666666666666667d0     0.833333333333333d0     0.416902503218908d0
Au1      0.750000000000000d0     0.000000000000000d0     0.337448557559499d0
Au1      0.916666666666667d0     0.083333333333333d0     0.416902503218908d0
Au1      0.750000000000000d0     0.250000000000000d0     0.337448557559499d0
Au1      0.916666666666667d0     0.333333333333333d0     0.416902503218908d0
Au1      0.750000000000000d0     0.500000000000000d0     0.337448557559499d0
Au1      0.916666666666667d0     0.583333333333333d0     0.416902503218908d0
Au1      0.750000000000000d0     0.750000000000000d0     0.337448557559499d0
Au1      0.916666666666667d0     0.833333333333333d0     0.416902503218908d0
O1       0.634701917614667d0     0.208567900556407d0     0.650735504159884d0
O1       0.774151236582202d0     0.463116661308192d0     0.617475134437813d0
O1       0.364979075484203d0     0.059455749916020d0     0.643407901476027d0
O1       0.534727173346850d0     0.485512879431612d0     0.598237405797123d0
O1       0.458897241339422d0     0.109016252531060d0     0.528448223451129d0
O1       0.760818896207270d0     0.494156407039809d0     0.511987036422577d0
O1       0.488314642916511d0     0.971002676111315d0     0.576089020936653d0
O1       0.733552275661292d0     0.664487374419568d0     0.538945503400977d0
C1       0.562702845481694d0     0.257982353010775d0     0.626534971907519d0
C1       0.657340314462940d0     0.366195976408529d0     0.593064448423798d0
C1       0.435415398385919d0     0.139787141400472d0     0.605821892943350d0
C1       0.594468423481651d0     0.436806835461717d0     0.567451485475155d0
C1       0.465375288163982d0     0.061385888498349d0     0.570489222384987d0
C1       0.703825427240834d0     0.547248622346183d0     0.539071137366072d0
H1       0.522347706831646d0     0.303631747588478d0     0.649816360878137d0
H1       0.694562405513453d0     0.323041337234416d0     0.567771294631788d0
H1       0.378674244382105d0     0.179695471866540d0     0.588068078644416d0
H1       0.521283657666255d0     0.365989518367991d0     0.542597962649243d0
H1       0.721851562071529d0     0.288201079082158d0     0.657569423342439d0
H1       0.748064636527588d0     0.520995292621811d0     0.633417848626382d0
H1       0.287259198779208d0     0.976802664615273d0     0.632903495459157d0
H1       0.530629043115024d0     0.560128859844073d0     0.584049991350269d0
H1       0.476431295260971d0     0.057755284010162d0     0.505870645583397d0
H1       0.819890673826283d0     0.561975029776598d0     0.489628157019538d0
K_POINTS automatic
4 4 1 0 0 0
